GLPSOL--GLPK LP/MIP Solver 5.0
Parameter(s) specified in the command line:
 --lp ../modeles/5_174.lp --log 5_174.log
Reading problem data from '../modeles/5_174.lp'...
891 rows, 1750 columns, 6105 non-zeros
870 integer variables, all of which are binary
2652 lines were read
GLPK Integer Optimizer 5.0
891 rows, 1750 columns, 6105 non-zeros
870 integer variables, all of which are binary
Preprocessing...
870 constraint coefficient(s) were reduced
891 rows, 1745 columns, 6100 non-zeros
870 integer variables, all of which are binary
Scaling...
 A: min|aij| =  5.285e-04  max|aij| =  4.000e+00  ratio =  7.569e+03
GM: min|aij| =  1.072e-01  max|aij| =  9.327e+00  ratio =  8.700e+01
EQ: min|aij| =  1.149e-02  max|aij| =  1.000e+00  ratio =  8.700e+01
2N: min|aij| =  7.812e-03  max|aij| =  1.738e+00  ratio =  2.224e+02
Constructing initial basis...
Size of triangular part is 891
Solving LP relaxation...
GLPK Simplex Optimizer 5.0
891 rows, 1745 columns, 6100 non-zeros
      0: obj =   1.000000000e+01 inf =   2.450e+01 (11)
     64: obj =   3.330139430e-01 inf =   0.000e+00 (0)
*   257: obj =  -2.235337459e+00 inf =   8.023e-17 (0)
OPTIMAL LP SOLUTION FOUND
Integer optimization begins...
Long-step dual simplex will be used
+   257: mip =     not found yet >=              -inf        (1; 0)
+   738: >>>>>  -2.235337459e+00 >=  -2.235337459e+00 < 0.1% (479; 0)
+   738: mip =  -2.235337459e+00 >=     tree is empty   0.0% (0; 957)
INTEGER OPTIMAL SOLUTION FOUND
Time used:   0.6 secs
Memory used: 2.6 Mb (2764195 bytes)
